data/solutions/recovery/degenerate/moderate/flexible/degenerate_moderate_instance20/28.sol
Elapsed time: 5.32
Upper bound: 154429037.0
Planning weighted value: 2211708948.0
C[0]=154429037.0
C[1]=154391930.0
C[2]=154256715.0
C[3]=153872184.0
y[0]=3
y[1]=2
y[2]=3
y[3]=0
y[4]=2
y[5]=1
y[6]=2
y[7]=3
y[8]=1
y[9]=0
y[10]=0
y[11]=1
y[12]=0
y[13]=3
y[14]=0
y[15]=3
y[16]=1
y[17]=2
y[18]=1
y[19]=1
y[20]=2
y[21]=3
y[22]=2
y[23]=1
y[24]=3
y[25]=0
y[26]=3
y[27]=0
y[28]=2
y[29]=0
y[30]=2
y[31]=3
y[32]=1
y[33]=3
y[34]=0
y[35]=2
